
--- Job bchfcnet.gms Start 02/08/22 17:05:03 34.3.0 rac355f3 WEX-WEI x86 64bit/MS Windows
--- Applying:
    C:\GAMS\34\gmsprmNT.txt
--- GAMS Parameters defined
    Input C:\Users\dekhi\Desktop\gamsworld\FCNetLib\test\bchfcnet.gms
    PageSize 0
    ScrDir C:\Users\dekhi\Desktop\gamsworld\FCNetLib\test\225a\
    SysDir C:\GAMS\34\
    LogOption 3
    ErrMsg 1
    ErrorLog 99
    IDE 1
    ResLim 3600
    LstTitleLeftAligned 1
Licensee: Eval License                                   S211214|0002AW-GEN
          Ostfalia Hochschule fuer angewandte Wissenschaften        DCE1645
          C:\Users\dekhi\Documents\GAMS\gamslice.txt
          License Admin: Mohamed Ali Dekhil, dekhil.medali@gmail.com       
          Evaluation license: Not for commercial or production use
GAMS 34.3.0   Copyright (C) 1987-2021 GAMS Development. All rights reserved
--- Starting compilation
--- bchfcnet.gms(34) 2 Mb
--- . decl.gms(15) 2 Mb
--- bchfcnet.gms(38) 2 Mb
--- . h80x6320d.inc(184) 3 Mb
--- bchfcnet.gms(67) 3 Mb
--- . equs.gms(20) 3 Mb
--- bchfcnet.gms(97) 3 Mb
--- call rm -f bchout_i.gdx startcut.txt startheur.txt cuthist.gdx agap.txt rgap.txt cntfail.txt
--- bchfcnet.gms(118) 3 Mb
--- Starting execution: elapsed 0:00:00.091
--- bchfcnet.gms(242) 6 Mb
--- GDX File (execute_unload) C:\Users\dekhi\Desktop\gamsworld\FCNetLib\test\net.gdx
--- bchfcnet.gms(333) 6 Mb
--- GDXin=C:\Users\dekhi\Desktop\gamsworld\FCNetLib\test\points\h80x6320d.gdx
--- bchfcnet.gms(333) 7 Mb
--- GDX File (execute_load) C:\Users\dekhi\Desktop\gamsworld\FCNetLib\test\points\h80x6320d.gdx
--- Generating MIP model master
--- bchfcnet.gms(337) 11 Mb
---   6,480 rows  12,641 columns  44,083 non-zeroes
---   6,320 discrete-columns
--- Executing CPLEX (Solvelink=2): elapsed 0:00:00.305

IBM ILOG CPLEX   34.3.0 rac355f3 Released Feb 25, 2021 WEI x86 64bit/MS Window

--- GAMS/Cplex Link licensed for continuous and discrete problems.

Reading parameter(s) from "C:\Users\dekhi\Desktop\gamsworld\FCNetLib\test\cplex.op2"
>>  mipstart 1
Finished reading from "C:\Users\dekhi\Desktop\gamsworld\FCNetLib\test\cplex.op2"

--- Space for names approximately 0.40 Mb
--- Use option 'names no' to turn use of names off
--- GMO memory 4.71 Mb (peak 4.81 Mb)
--- Dictionary memory 0.00 Mb
--- Cplex 20.1.0.0 link memory 0.32 Mb (peak 1.39 Mb)
--- Starting Cplex

Version identifier: 20.1.0.0 | 2020-11-10 | 9bedb6d68
CPXPARAM_Threads                                 1
CPXPARAM_MIP_Display                             4
CPXPARAM_TimeLimit                               3600
CPXPARAM_MIP_Tolerances_AbsMIPGap                0
CPXPARAM_MIP_Tolerances_MIPGap                   0
Generic callback                                 0x50
Processing 1 MIP starts.
MIP start 'm1' defined solution with objective 6382.0991.
1 of 1 MIP starts provided solutions.
MIP start 'm1' defined initial solution with objective 6382.0991.
Tried aggregator 1 time.
MIP Presolve eliminated 157 rows and 159 columns.
MIP Presolve added 156 rows and 0 columns.
Reduced MIP has 6478 rows, 12482 columns, and 31361 nonzeros.
Reduced MIP has 6241 binaries, 0 generals, 0 SOSs, and 0 indicators.
Presolve time = 0.03 sec. (17.53 ticks)
Probing time = 0.02 sec. (6.30 ticks)
Tried aggregator 1 time.
Detecting symmetries...
Reduced MIP has 6478 rows, 12482 columns, and 31361 nonzeros.
Reduced MIP has 6241 binaries, 0 generals, 0 SOSs, and 0 indicators.
Presolve time = 0.03 sec. (20.36 ticks)
Probing time = 0.02 sec. (6.07 ticks)
Clique table members: 85.
MIP emphasis: balance optimality and feasibility.
MIP search method: dynamic search.
Parallel mode: none, using 1 thread.
Tried aggregator 1 time.
Aggregator did 869 substitutions.
Reduced LP has 5609 rows, 11613 columns, and 29623 nonzeros.
Presolve time = 0.02 sec. (8.02 ticks)
Initializing dual steep norms . . .

Iteration log . . .
Iteration:     1   Dual objective     =          4456.755514
Initializing dual steep norms . . .
Root relaxation solution time = 0.03 sec. (20.90 ticks)

        Nodes                                         Cuts/
   Node  Left     Objective  IInf  Best Integer    Best Bound    ItCnt     Gap

*     0+    0                         6382.0991        0.0000           100.00%
Found incumbent of value 6382.099050 after 0.19 sec. (101.62 ticks)
      0     0     5325.1601   116     6382.0991     5325.1601      166   16.56%
      0     0     5594.6837   112     6382.0991     Cuts: 205      249   12.34%
      0     0     5882.8792    82     6382.0991     Cuts: 143      309    7.82%
      0     0     5977.9912    78     6382.0991     Cuts: 102      362    6.33%
      0     0     6097.1931    89     6382.0991     Cuts: 102      420    4.46%
      0     0     6123.0731    64     6382.0991     Cuts: 106      465    4.06%
Detecting symmetries...
      0     0     6172.4146    79     6382.0991      Cuts: 87      519    3.29%
Detecting symmetries...

Repeating presolve.
Tried aggregator 1 time.
MIP Presolve eliminated 2244 rows and 4402 columns.
MIP Presolve modified 3931 coefficients.
Reduced MIP has 4234 rows, 8080 columns, and 20270 nonzeros.
Reduced MIP has 4040 binaries, 0 generals, 0 SOSs, and 0 indicators.
Presolve time = 0.02 sec. (12.22 ticks)
Probing time = 0.02 sec. (4.24 ticks)
Cover probing fixed 0 vars, tightened 14 bounds.
Tried aggregator 1 time.
Detecting symmetries...
MIP Presolve modified 14 coefficients.
Reduced MIP has 4234 rows, 8080 columns, and 20270 nonzeros.
Reduced MIP has 4040 binaries, 0 generals, 0 SOSs, and 0 indicators.
Presolve time = 0.05 sec. (12.57 ticks)
Represolve time = 0.11 sec. (65.25 ticks)
Probing time = 0.00 sec. (4.15 ticks)
Clique table members: 86.
MIP emphasis: balance optimality and feasibility.
MIP search method: dynamic search.
Parallel mode: none, using 1 thread.
Tried aggregator 1 time.
Aggregator did 99 substitutions.
Reduced LP has 4544 rows, 7981 columns, and 62947 nonzeros.
Presolve time = 0.00 sec. (7.91 ticks)
Initializing dual steep norms . . .

Iteration log . . .
Iteration:     1   Dual objective     =          4456.755514
Iteration:   170   Dual objective     =          5726.480974
Initializing dual steep norms . . .
Root relaxation solution time = 0.02 sec. (24.66 ticks)

        Nodes                                         Cuts/
   Node  Left     Objective  IInf  Best Integer    Best Bound    ItCnt     Gap

*     0+    0                         6382.0991     6172.4146             3.29%
Found incumbent of value 6382.099050 after 0.89 sec. (747.73 ticks)
      0     0     6172.4156    86     6382.0991     6172.4156      882    3.29%
      0     0     6196.6553    67     6382.0991     Cuts: 114      956    2.91%
      0     0     6225.7670    85     6382.0991      Cuts: 87     1035    2.45%
      0     0     6255.0747   106     6382.0991     Cuts: 105     1113    1.99%
      0     0     6272.5690   100     6382.0991     Cuts: 108     1218    1.72%
      0     0     6286.0204   124     6382.0991     Cuts: 115     1359    1.51%
      0     0     6294.3296    94     6382.0991     Cuts: 108     1453    1.38%
      0     0     6302.4345    97     6382.0991     Cuts: 100     1541    1.25%
      0     0     6311.8020    89     6382.0991      Cuts: 69     1625    1.10%
      0     0     6325.0910    74     6382.0991      Cuts: 72     1717    0.89%
      0     0     6326.4653    94     6382.0991      Cuts: 85     1801    0.87%
      0     0     6327.3961   118     6382.0991      Cuts: 75     1881    0.86%
      0     0     6332.8907    66     6382.0991      Cuts: 60     1956    0.77%
      0     0     6338.0864    63     6382.0991      Cuts: 37     2023    0.69%
      0     0     6343.3107    62     6382.0991      Cuts: 58     2078    0.61%
      0     0     6344.9247    86     6382.0991      Cuts: 50     2138    0.58%
      0     0     6346.7752    63     6382.0991      Cuts: 45     2183    0.55%
      0     0     6347.1754    64     6382.0991      Cuts: 37     2235    0.55%
      0     0     6347.6268    86     6382.0991      Cuts: 24     2284    0.54%
Detecting symmetries...
      0     2     6347.6268    86     6382.0991     6347.6335     2284    0.54%
Elapsed time = 1.98 sec. (1850.66 ticks, tree = 0.01 MB, solutions = 1)
     52    44        cutoff           6382.0991     6347.8950     3617    0.54%
    108    69     6381.1006    14     6382.0991     6349.2242     5282    0.52%
                                                 Impl Bds: 15                  
    154    77     6380.9538    40     6382.0991     6352.8631     7228    0.46%
                                                     Cuts: 14                  
    200    69     6381.4839    33     6382.0991     6360.3775     9017    0.34%
                                                      Cuts: 9                  
    280    53     6380.9183    47     6382.0991     6372.0928    11038    0.16%

Implied bound cuts applied:  129
Flow cuts applied:  345
Mixed integer rounding cuts applied:  42
Flow path cuts applied:  15
Lift and project cuts applied:  1
Gomory fractional cuts applied:  7

Root node processing (before b&c):
  Real time             =    2.00 sec. (1845.06 ticks)
Sequential b&c:
  Real time             =    1.17 sec. (1462.90 ticks)
                          ------------
Total (root+branch&cut) =    3.17 sec. (3307.96 ticks)

--- MIP status (101): integer optimal solution.
--- Cplex Time: 3.17sec (det. 3307.99 ticks)

--- Fixing integer variables and solving final LP...

Version identifier: 20.1.0.0 | 2020-11-10 | 9bedb6d68
CPXPARAM_Advance                                 2
CPXPARAM_Threads                                 1
CPXPARAM_MIP_Display                             4
CPXPARAM_TimeLimit                               3600
CPXPARAM_MIP_Tolerances_AbsMIPGap                0
CPXPARAM_MIP_Tolerances_MIPGap                   0
Tried aggregator 1 time.
LP Presolve eliminated 6479 rows and 12641 columns.
All rows and columns eliminated.
Presolve time = 0.01 sec. (4.70 ticks)

--- Fixed MIP status (1): optimal.
--- Cplex Time: 0.01sec (det. 7.89 ticks)


Proven optimal solution
MIP Solution:         6382.099050    (12115 iterations, 375 nodes)
Final Solve:          6382.099050    (0 iterations)

Best possible:        6382.099050
Absolute gap:            0.000000
Relative gap:            0.000000

--- Reading solution for model master
--- bchfcnet.gms(337) 11 Mb  3 secs
*** Status: Normal completion
--- Job bchfcnet.gms Stop 02/08/22 17:05:07 elapsed 0:00:03.614
